(declare-const X String)
; [A-Za-z_.0-9-]+@{1}[a-z]+([.]{1}[a-z]{2,4})+
(assert (not (str.in_re X (re.++ (re.+ (re.union (re.range "A" "Z") (re.range "a" "z") (str.to_re "_") (str.to_re ".") (re.range "0" "9") (str.to_re "-"))) ((_ re.loop 1 1) (str.to_re "@")) (re.+ (re.range "a" "z")) (re.+ (re.++ ((_ re.loop 1 1) (str.to_re ".")) ((_ re.loop 2 4) (re.range "a" "z")))) (str.to_re "\u{a}")))))
; WinSession\w+asdbiz\u{2E}biz\dpjpoptwql\u{2f}rlnj\u{2F}pagead\u{2F}ads\?
(assert (not (str.in_re X (re.++ (str.to_re "WinSession") (re.+ (re.union (re.range "0" "9") (re.range "A" "Z") (re.range "a" "z") (str.to_re "_"))) (str.to_re "asdbiz.biz") (re.range "0" "9") (str.to_re "pjpoptwql/rlnj/pagead/ads?\u{a}")))))
; From\u{3A}\w+SoftActivity\d+
(assert (not (str.in_re X (re.++ (str.to_re "From:") (re.+ (re.union (re.range "0" "9") (re.range "A" "Z") (re.range "a" "z") (str.to_re "_"))) (str.to_re "SoftActivity\u{13}") (re.+ (re.range "0" "9")) (str.to_re "\u{a}")))))
; ^[a-zA-Z0-9][a-zA-Z0-9_]{2,29}$
(assert (str.in_re X (re.++ (re.union (re.range "a" "z") (re.range "A" "Z") (re.range "0" "9")) ((_ re.loop 2 29) (re.union (re.range "a" "z") (re.range "A" "Z") (re.range "0" "9") (str.to_re "_"))) (str.to_re "\u{a}"))))
; ^([0-9]{1,2},([0-9]{2},)*[0-9]{3}|[0-9]+)$
(assert (not (str.in_re X (re.++ (re.union (re.++ ((_ re.loop 1 2) (re.range "0" "9")) (str.to_re ",") (re.* (re.++ ((_ re.loop 2 2) (re.range "0" "9")) (str.to_re ","))) ((_ re.loop 3 3) (re.range "0" "9"))) (re.+ (re.range "0" "9"))) (str.to_re "\u{a}")))))
(check-sat)
